\ Model QCP
\ LP format - for model browsing. Use MPS format to capture full model detail.
Minimize
  z + y
Subject To
 Cut_0: z + [ ] >= 900
 Cut_1: z + [ ] >= 900
 Cut_2: z + [ ] >= 900
 Cut_3: z + [ ] >= 900
 Cut_4: z + [ ] >= 900
 Cut_5: z + [ ] >= 900
 Cut_6: z + [ ] >= 900
 Cut_7: z + [ ] >= 900
 Cut_8: z + [ ] >= 900
 Cut_9: z + [ ] >= 900
Bounds
 z = 900
 y = 12.52996408614167
End
